55977
5, 37, 7, 51, 40, 43, 49, 19, 48, 17, 29, 10, 9, 14, 2, 45, 11, 25, 31, 27, 1, 33, 42, 52, 15, 36, 46, 39, 16, 22, 21, 23, 53, 34, 12, 18, 4, 30, 47, 54, 26, 55, 28, 6, 3, 13, 41, 32, 44, 8, 38, 50, 20, 24, 35
